unsat
(define-fun skel ((n204 Bool) (n191 Bool) (n177 Bool) (n171 Bool)) Bool (and (and (and n177 n204) n171) n191))
1.90user 0.01system 0:01.91elapsed 99%CPU (0avgtext+0avgdata 33552maxresident)k
8inputs+8outputs (0major+3093minor)pagefaults 0swaps
